p cnf 23 57
a 16 4 0
e 1 2 3 5 6 7 8 9 10 11 12 13 14 15 17 18 19 20 21 22 23 0
-3 -1 0
-3 2 0
1 -2 3 0
-4 2 -5 0
4 -2 -5 0
-4 -2 5 0
4 2 5 0
7 -2 0
7 1 0
2 -1 -7 0
-8 7 0
-8 2 0
-7 -2 8 0
9 6 0
9 8 0
-6 -8 -9 0
-9 -10 -11 0
9 10 -11 0
-9 10 11 0
9 -10 11 0
12 5 0
12 -11 0
-5 11 -12 0
-3 12 -13 0
3 -12 -13 0
-3 -12 13 0
3 12 13 0
-2 -14 -15 0
2 14 -15 0
-2 14 15 0
2 -14 15 0
-17 -15 0
-17 -16 0
15 16 17 0
-18 -15 -19 0
18 15 -19 0
-18 15 19 0
18 -15 19 0
20 -17 0
20 -19 0
17 19 -20 0
7 6 -21 0
-7 -6 -21 0
7 -6 21 0
-7 6 21 0
-22 20 0
-22 21 0
-20 -21 22 0
23 13 0
23 22 0
-13 -22 -23 0
13 -23 -16 -14 1 0
-18 -4 19 0
-23 10 21 -12 -1 7 0
15 14 5 -22 9 0
23 -17 -14 22 -21 0
23 0
